NAME : pr124.59030.tour
COMMENT : Length = 59030
COMMENT : Found by LKH [Keld Helsgaun] Fri Jan 16 03:57:18 2015
TYPE : TOUR
DIMENSION : 124
TOUR_SECTION
1
2
3
4
5
6
32
31
30
34
33
62
66
65
67
83
84
82
81
63
64
68
69
70
71
72
73
74
75
76
77
78
79
80
92
93
94
95
96
97
98
99
100
124
123
122
121
120
119
118
117
116
115
101
91
85
86
87
90
102
103
114
113
112
111
110
109
108
107
106
105
104
89
88
53
52
46
47
48
49
50
51
15
14
13
12
11
10
9
16
17
18
19
45
54
44
43
42
41
20
21
40
39
23
22
25
24
26
38
37
55
56
57
58
60
61
59
36
35
29
28
27
7
8
-1
EOF
